NAME : mEgtspf
TYPE : ATSP
DIMENSION : 45
EDGE_WEIGHT_TYPE : EXPLICIT
EDGE_WEIGHT_FORMAT : FULL_MATRIX
EDGE_WEIGHT_SECTION
99999 2 0 0 26 0 0 0 0 30 0 0 0 16 17 20 18 0 37 38 42 43 44 44 0 26 33 38 0 0 0 9 0 34 0 36 33 0 0 0 0 0 0 0 0 
0 99999 0 0 26 0 0 0 0 32 0 0 0 16 17 18 16 0 37 38 40 43 44 44 0 26 33 36 0 0 0 9 0 36 0 36 31 0 0 0 0 0 0 0 0 
0 30 99999 0 6 0 0 0 0 42 0 0 0 16 15 16 18 0 27 24 26 29 28 24 0 18 11 14 0 0 0 23 0 48 0 34 35 0 0 0 0 0 0 0 0 
0 28 0 99999 2 0 0 0 0 46 0 0 0 14 13 12 14 0 31 28 30 33 32 28 0 22 15 18 0 0 0 21 0 52 0 38 39 0 0 0 0 0 0 0 0 
0 26 0 0 99999 0 0 0 0 48 0 0 0 12 11 10 12 0 33 30 32 35 34 30 0 24 17 20 0 0 0 19 0 54 0 40 41 0 0 0 0 0 0 0 0 
0 9 0 0 25 99999 0 0 0 25 0 0 0 19 22 25 23 0 34 35 39 40 41 41 0 23 30 35 0 0 0 10 0 29 0 33 30 0 0 0 0 0 0 0 0 
0 20 0 0 36 0 99999 0 0 14 0 0 0 30 33 36 34 0 37 38 42 43 44 44 0 26 33 38 0 0 0 21 0 24 0 36 33 0 0 0 0 0 0 0 0 
0 23 0 0 19 0 0 99999 0 31 0 0 0 13 16 19 17 0 16 17 21 22 23 23 0 5 12 17 0 0 0 16 0 35 0 21 22 0 0 0 0 0 0 0 0 
0 28 0 0 44 0 0 0 99999 6 0 0 0 38 41 44 42 0 29 30 34 35 36 36 0 24 31 30 0 0 0 29 0 16 0 28 25 0 0 0 0 0 0 0 0 
0 30 0 0 46 0 0 0 0 99999 0 0 0 40 43 46 44 0 25 26 28 31 32 32 0 26 33 30 0 0 0 31 0 10 0 24 19 0 0 0 0 0 0 0 0 
0 12 0 0 20 0 0 0 0 40 99999 0 0 10 11 10 8 0 31 32 34 37 38 38 0 20 27 30 0 0 0 11 0 44 0 30 31 0 0 0 0 0 0 0 0 
0 15 0 0 31 0 0 0 0 19 0 99999 0 25 28 31 29 0 30 31 35 36 37 37 0 19 26 31 0 0 0 16 0 23 0 29 26 0 0 0 0 0 0 0 0 
0 20 0 0 12 0 0 0 0 38 0 0 99999 4 7 12 10 0 23 22 24 27 28 28 0 14 17 20 0 0 0 13 0 44 0 30 31 0 0 0 0 0 0 0 0 
0 16 0 0 14 0 0 0 0 42 0 0 0 99999 3 8 6 0 27 26 28 31 32 32 0 18 21 24 0 0 0 13 0 48 0 34 35 0 0 0 0 0 0 0 0 
0 19 0 0 11 0 0 0 0 45 0 0 0 5 99999 5 5 0 28 27 29 32 29 29 0 21 18 21 0 0 0 16 0 49 0 35 36 0 0 0 0 0 0 0 0 
0 18 0 0 12 0 0 0 0 46 0 0 0 8 5 99999 2 0 31 28 30 33 32 30 0 22 19 24 0 0 0 17 0 52 0 38 39 0 0 0 0 0 0 0 0 
0 16 0 0 14 0 0 0 0 44 0 0 0 6 5 6 99999 0 29 26 28 31 32 32 0 20 21 26 0 0 0 15 0 50 0 36 37 0 0 0 0 0 0 0 0 
0 39 0 0 29 0 0 0 0 27 0 0 0 23 26 29 27 99999 4 1 5 8 9 9 0 15 16 13 0 0 0 32 0 25 0 11 12 0 0 0 0 0 0 0 0 
0 37 0 0 31 0 0 0 0 25 0 0 0 25 26 31 29 0 99999 3 7 10 11 11 0 13 16 13 0 0 0 30 0 25 0 11 12 0 0 0 0 0 0 0 0 
0 40 0 0 28 0 0 0 0 28 0 0 0 26 25 28 26 0 5 99999 4 7 8 8 0 16 15 12 0 0 0 33 0 26 0 12 13 0 0 0 0 0 0 0 0 
0 42 0 0 32 0 0 0 0 30 0 0 0 28 29 32 30 0 7 6 99999 3 4 4 0 18 19 16 0 0 0 35 0 22 0 8 13 0 0 0 0 0 0 0 0 
0 45 0 0 33 0 0 0 0 33 0 0 0 31 30 33 31 0 10 7 5 99999 3 7 0 21 20 17 0 0 0 38 0 23 0 11 14 0 0 0 0 0 0 0 0 
0 44 0 0 32 0 0 0 0 32 0 0 0 30 27 32 30 0 9 8 4 5 99999 4 0 20 17 14 0 0 0 37 0 22 0 10 13 0 0 0 0 0 0 0 0 
0 46 0 0 28 0 0 0 0 34 0 0 0 32 31 30 32 0 11 10 6 9 6 99999 0 22 15 12 0 0 0 39 0 26 0 12 15 0 0 0 0 0 0 0 0 
0 24 0 0 26 0 0 0 0 24 0 0 0 20 21 26 24 0 15 16 20 21 22 22 99999 4 11 16 0 0 0 17 0 30 0 16 17 0 0 0 0 0 0 0 0 
0 28 0 0 22 0 0 0 0 28 0 0 0 16 19 22 20 0 13 14 16 19 20 20 0 99999 7 12 0 0 0 21 0 32 0 18 19 0 0 0 0 0 0 0 0 
0 35 0 0 15 0 0 0 0 35 0 0 0 21 20 19 21 0 18 17 19 22 19 17 0 11 99999 5 0 0 0 28 0 39 0 25 26 0 0 0 0 0 0 0 0 
0 38 0 0 20 0 0 0 0 30 0 0 0 24 23 24 26 0 13 12 14 17 14 12 0 14 7 99999 0 0 0 31 0 34 0 20 21 0 0 0 0 0 0 0 0 
0 23 0 0 7 0 0 0 0 43 0 0 0 9 8 7 9 0 28 25 27 30 29 25 0 19 14 17 99999 0 0 16 0 49 0 35 36 0 0 0 0 0 0 0 0 
0 5 0 0 29 0 0 0 0 33 0 0 0 19 20 21 19 0 40 41 45 46 47 47 0 29 36 41 0 99999 0 12 0 39 0 39 36 0 0 0 0 0 0 0 0 
0 8 0 0 20 0 0 0 0 30 0 0 0 14 15 20 18 0 33 34 36 39 40 40 0 22 29 32 0 0 99999 3 0 36 0 32 27 0 0 0 0 0 0 0 0 
0 11 0 0 17 0 0 0 0 33 0 0 0 11 14 17 15 0 30 31 33 36 37 37 0 19 26 29 0 0 0 99999 0 37 0 29 24 0 0 0 0 0 0 0 0 
0 33 0 0 49 0 0 0 0 15 0 0 0 43 46 49 47 0 20 23 21 20 19 23 0 29 36 33 0 0 0 34 99999 5 0 13 12 0 0 0 0 0 0 0 0 
0 36 0 0 54 0 0 0 0 10 0 0 0 48 49 54 52 0 25 26 24 23 24 26 0 32 39 36 0 0 0 37 0 99999 0 18 17 0 0 0 0 0 0 0 0 
0 29 0 0 33 0 0 0 0 17 0 0 0 27 30 33 31 0 10 11 15 16 17 17 0 13 20 17 0 0 0 22 0 21 99999 9 8 0 0 0 0 0 0 0 0 
0 36 0 0 38 0 0 0 0 24 0 0 0 32 33 38 36 0 9 10 8 11 12 10 0 16 23 20 0 0 0 29 0 18 0 99999 5 0 0 0 0 0 0 0 0 
0 31 0 0 41 0 0 0 0 19 0 0 0 35 36 41 39 0 12 13 13 14 15 15 0 19 26 23 0 0 0 24 0 15 0 7 99999 0 0 0 0 0 0 0 0 
0 24 0 0 24 0 0 0 0 26 0 0 0 18 19 24 22 0 17 18 20 23 24 24 0 6 13 16 0 0 0 17 0 32 0 18 19 99999 0 0 0 0 0 0 0 
0 19 0 0 37 0 0 0 0 17 0 0 0 31 32 37 35 0 40 41 45 46 47 47 0 29 36 41 0 0 0 20 0 27 0 39 36 0 99999 0 0 0 0 0 0 
0 17 0 0 33 0 0 0 0 15 0 0 0 27 30 33 31 0 38 39 41 44 45 45 0 27 34 37 0 0 0 18 0 23 0 37 32 0 0 99999 0 0 0 0 0 
0 23 0 0 13 0 0 0 0 37 0 0 0 9 10 13 11 0 20 17 19 22 23 23 0 13 12 17 0 0 0 16 0 41 0 27 28 0 0 0 99999 0 0 0 0 
0 28 0 0 46 0 0 0 0 10 0 0 0 40 41 46 44 0 33 34 38 39 40 40 0 24 31 34 0 0 0 29 0 20 0 32 29 0 0 0 0 99999 0 0 0 
0 14 0 0 32 0 0 0 0 20 0 0 0 26 27 32 30 0 43 44 46 49 50 50 0 32 39 42 0 0 0 15 0 28 0 42 37 0 0 0 0 0 99999 0 0 
0 13 0 0 37 0 0 0 0 25 0 0 0 27 28 27 25 0 48 49 51 54 55 55 0 37 44 47 0 0 0 20 0 33 0 47 42 0 0 0 0 0 0 99999 0 
0 10 0 0 30 0 0 0 0 24 0 0 0 20 23 26 24 0 41 42 44 47 48 48 0 30 37 40 0 0 0 13 0 28 0 40 35 0 0 0 0 0 0 0 99999 
EOF
